
n_res = 4;
rcap = [15, 17, 294, 246];
rtype = [1, 1, 2, 2];
n_tasks = 100;
modes =  [{1, 2, 3}, {4, 5, 6}, {7, 8, 9}, {10, 11, 12}, {13, 14, 15}, {16, 17, 18}, {19, 20, 21}, {22, 23, 24}, {25, 26, 27}, {28, 29, 30}, {31, 32, 33}, {34, 35, 36}, {37, 38, 39}, {40, 41, 42}, {43, 44, 45}, {46, 47, 48}, {49, 50, 51}, {52, 53, 54}, {55, 56, 57}, {58, 59, 60}, {61, 62, 63}, {64, 65, 66}, {67, 68, 69}, {70, 71, 72}, {73, 74, 75}, {76, 77, 78}, {79, 80, 81}, {82, 83, 84}, {85, 86, 87}, {88, 89, 90}, {91, 92, 93}, {94, 95, 96}, {97, 98, 99}, {100, 101, 102}, {103, 104, 105}, {106, 107, 108}, {109, 110, 111}, {112, 113, 114}, {115, 116, 117}, {118, 119, 120}, {121, 122, 123}, {124, 125, 126}, {127, 128, 129}, {130, 131, 132}, {133, 134, 135}, {136, 137, 138}, {139, 140, 141}, {142, 143, 144}, {145, 146, 147}, {148, 149, 150}, {151, 152, 153}, {154, 155, 156}, {157, 158, 159}, {160, 161, 162}, {163, 164, 165}, {166, 167, 168}, {169, 170, 171}, {172, 173, 174}, {175, 176, 177}, {178, 179, 180}, {181, 182, 183}, {184, 185, 186}, {187, 188, 189}, {190, 191, 192}, {193, 194, 195}, {196, 197, 198}, {199, 200, 201}, {202, 203, 204}, {205, 206, 207}, {208, 209, 210}, {211, 212, 213}, {214, 215, 216}, {217, 218, 219}, {220, 221, 222}, {223, 224, 225}, {226, 227, 228}, {229, 230, 231}, {232, 233, 234}, {235, 236, 237}, {238, 239, 240}, {241, 242, 243}, {244, 245, 246}, {247, 248, 249}, {250, 251, 252}, {253, 254, 255}, {256, 257, 258}, {259, 260, 261}, {262, 263, 264}, {265, 266, 267}, {268, 269, 270}, {271, 272, 273}, {274, 275, 276}, {277, 278, 279}, {280, 281, 282}, {283, 284, 285}, {286, 287, 288}, {289, 290, 291}, {292, 293, 294}, {295, 296, 297}, {298, 299, 300}];
succ =  [{55, 43, 39, 38, 37, 28, 26, 25, 24, 18, 12}, {51, 46, 45, 44, 39, 38, 36, 35, 34, 32, 29, 28, 25, 24}, {49, 46, 45, 39, 35, 33, 32, 30, 25, 24, 21}, {49, 46, 44, 43, 37, 32, 25, 13}, {59, 52, 51, 46, 43, 38, 36, 25, 19}, {59, 53, 51, 48, 47, 46, 43, 39, 38, 37, 36, 33, 28, 24}, {59, 55, 52, 48, 44, 43, 39, 37, 33, 32, 30, 28}, {59, 52, 51, 49, 47, 44, 40, 39, 36, 28, 25}, {54, 51, 48, 45, 44, 43, 39, 36, 35, 30, 24}, {78, 58, 57, 54, 51, 50, 48, 47, 46, 45, 43, 39, 33, 32}, {59, 55, 51, 50, 46, 45, 43, 42, 40, 39, 32, 30}, {59, 54, 45, 44, 41, 40, 36, 35, 32, 30}, {59, 51, 50, 45, 38, 35, 30, 24}, {59, 54, 51, 50, 48, 47, 43, 39, 24}, {58, 57, 56, 52, 46, 41, 39, 37, 35}, {67, 58, 57, 48, 47, 44, 40, 28}, {82, 78, 68, 65, 59, 58, 56, 55, 54, 53, 49, 48, 45, 42, 40}, {78, 61, 59, 57, 51, 48, 47, 44, 42, 32}, {70, 67, 63, 58, 47, 45, 40, 39, 28}, {78, 68, 63, 61, 59, 58, 55, 53, 52, 51, 47, 46, 42, 41}, {78, 65, 64, 57, 55, 54, 53, 51, 50, 44, 38}, {82, 60, 57, 56, 50, 48, 41, 38, 35}, {77, 61, 59, 57, 51, 50, 48, 30}, {82, 78, 75, 70, 68, 67, 61, 57, 56, 42, 41, 40}, {82, 81, 78, 70, 69, 68, 67, 61, 58, 56, 54, 53, 48}, {82, 77, 70, 69, 68, 61, 60, 57, 56, 47, 46, 41}, {82, 78, 75, 68, 67, 63, 61, 60, 56, 55, 42, 40}, {82, 78, 69, 68, 64, 61, 56, 54, 42, 41}, {78, 61, 55, 49, 48, 47}, {78, 76, 69, 68, 67, 65, 63, 60, 58, 47}, {98, 82, 81, 80, 78, 76, 75, 74, 70, 69, 64, 63, 62, 60, 56}, {82, 80, 76, 70, 68, 67, 65, 62, 60, 56, 53}, {82, 81, 80, 75, 70, 68, 62, 56, 40}, {80, 75, 69, 65, 64, 60, 58, 56, 42}, {74, 70, 69, 68, 65, 64, 47, 42}, {100, 77, 72, 65, 58, 57, 50}, {96, 95, 78, 69, 66, 64, 60, 50}, {100, 99, 97, 96, 76, 75, 73, 72, 71, 68, 67, 62, 61}, {100, 99, 96, 82, 76, 75, 73, 72, 66, 65, 64, 61}, {100, 99, 98, 96, 95, 90, 77, 76, 74, 73, 72, 69, 66, 64}, {99, 96, 90, 89, 81, 80, 76, 74, 73, 72, 65, 62}, {100, 98, 97, 96, 94, 91, 90, 89, 81, 77, 76, 73, 72, 71, 62}, {100, 99, 97, 95, 82, 80, 76, 75, 72, 71, 67, 66}, {95, 92, 81, 80, 74, 70, 68, 63, 60}, {96, 95, 81, 75, 74, 73, 66, 60}, {95, 90, 80, 76, 73, 67, 66, 65}, {100, 98, 97, 96, 95, 81, 80, 75, 73, 71, 66}, {99, 96, 95, 80, 75, 73, 72, 66, 64}, {97, 92, 88, 80, 77, 73, 72, 57}, {99, 93, 92, 80, 76, 75, 74, 73, 71, 70, 68}, {98, 95, 94, 91, 87, 82, 81, 75, 71, 69, 66}, {97, 96, 74, 72, 70, 66, 64}, {100, 98, 97, 96, 94, 93, 91, 87, 77, 75, 66}, {96, 95, 94, 92, 86, 76, 75, 60}, {99, 96, 76, 72, 70, 62}, {99, 96, 94, 92, 90, 89, 88, 86, 83, 79, 73, 72}, {96, 95, 91, 86, 63}, {90, 89, 71, 62}, {98, 97, 95, 94, 88, 87, 86, 85, 84, 83, 80}, {100, 91, 90, 89, 88, 85, 72, 71}, {98, 95, 92, 87, 86, 85, 80, 74}, {95, 87, 66}, {99, 94, 93, 90, 89, 85, 83, 79}, {94, 92, 91, 88, 86, 85, 71}, {98, 97, 87, 86, 85, 79, 71}, {92, 88, 86, 85, 83, 79}, {93, 92, 91, 89, 74}, {98, 91, 88, 86, 85, 83}, {97, 89, 88, 86, 84, 83}, {90, 89, 88, 87, 83}, {84, 83}, {93, 87}, {87, 85}, {94, 83}, {90, 89}, {87, 84}, {86, 84}, {79}, {84}, {91}, {93}, {85}, {}, {}, {}, {}, {}, {}, {}, {}, {}, {}, {}, {}, {}, {}, {}, {}, {}, {}];
n_opt = 300;
dur = [1, 3, 7, 7, 8, 9, 1, 8, 10, 4, 9, 10, 4, 5, 7, 1, 2, 6, 1, 10, 10, 5, 6, 7, 1, 4, 8, 1, 5, 10, 3, 4, 7, 1, 5, 8, 2, 6, 10, 3, 3, 6, 1, 1, 9, 1, 8, 8, 6, 7, 7, 2, 6, 7, 2, 8, 9, 7, 9, 10, 2, 4, 9, 1, 2, 4, 4, 7, 8, 3, 7, 8, 2, 3, 7, 5, 7, 9, 4, 8, 10, 1, 10, 10, 2, 7, 9, 3, 5, 7, 3, 5, 10, 1, 1, 4, 1, 1, 7, 2, 3, 9, 3, 4, 6, 4, 6, 7, 2, 3, 8, 3, 3, 3, 1, 3, 5, 1, 3, 8, 7, 10, 10, 4, 7, 10, 1, 6, 7, 6, 7, 10, 4, 9, 10, 1, 3, 10, 3, 6, 9, 1, 4, 5, 3, 7, 7, 5, 6, 6, 4, 5, 6, 3, 6, 9, 5, 6, 7, 6, 7, 8, 1, 4, 8, 7, 7, 8, 4, 7, 7, 1, 2, 8, 3, 7, 8, 1, 6, 9, 6, 7, 9, 2, 2, 4, 1, 3, 8, 5, 8, 10, 2, 5, 10, 4, 6, 9, 1, 2, 9, 1, 8, 10, 5, 6, 9, 2, 4, 6, 5, 5, 9, 3, 5, 7, 1, 2, 6, 2, 5, 8, 6, 9, 9, 1, 2, 6, 2, 8, 9, 7, 7, 9, 1, 2, 5, 6, 8, 9, 3, 5, 9, 5, 6, 7, 2, 3, 4, 3, 4, 9, 5, 8, 9, 1, 6, 7, 1, 7, 8, 3, 9, 9, 1, 6, 9, 3, 7, 8, 6, 7, 8, 3, 5, 7, 6, 8, 10, 5, 6, 7, 6, 7, 8, 1, 2, 5, 7, 9, 10, 5, 6, 9, 7, 7, 8, 1, 2, 4];
rreq = [|2, 2, 2, 0, 3, 0, 0, 0, 2, 5, 4, 4, 0, 3, 0, 0, 0, 1, 0, 0, 0, 0, 0, 1, 0, 1, 0, 0, 0, 0, 4, 0, 4, 0, 2, 0, 5, 5, 0, 5, 5, 5, 2, 0, 0, 0, 3, 0, 3, 0, 3, 5, 0, 0, 0, 3, 2, 0, 1, 1, 0, 0, 0, 0, 0, 3, 0, 0, 0, 5, 0, 3, 0, 0, 0, 3, 3, 3, 3, 2, 2, 0, 2, 0, 4, 3, 0, 0, 0, 1, 0, 0, 0, 4, 3, 0, 5, 0, 4, 1, 1, 1, 0, 4, 0, 3, 0, 0, 0, 3, 2, 0, 3, 0, 0, 3, 3, 3, 0, 0, 0, 0, 4, 2, 2, 2, 5, 0, 0, 3, 0, 1, 0, 0, 0, 0, 0, 0, 3, 2, 0, 0, 4, 4, 0, 0, 0, 4, 0, 0, 1, 0, 0, 0, 0, 1, 0, 0, 0, 0, 0, 0, 2, 0, 0, 5, 0, 3, 0, 2, 2, 3, 3, 0, 0, 2, 2, 0, 2, 1, 2, 1, 1, 4, 0, 0, 0, 3, 0, 0, 3, 3, 5, 4, 0, 0, 1, 0, 1, 0, 1, 2, 0, 2, 0, 0, 0, 3, 2, 2, 4, 0, 0, 0, 2, 0, 3, 0, 0, 3, 0, 2, 5, 4, 0, 4, 2, 2, 0, 3, 3, 0, 0, 0, 0, 0, 0, 0, 3, 2, 4, 3, 3, 3, 3, 0, 3, 2, 2, 0, 0, 0, 3, 0, 1, 0, 2, 1, 3, 3, 0, 2, 2, 0, 5, 0, 0, 0, 0, 0, 2, 0, 2, 4, 3, 0, 0, 4, 0, 0, 2, 2, 2, 2, 2, 0, 0, 0, 3, 0, 0, 5, 4, 0, 4, 0, 0, 0, 0, 4
 |0, 0, 0, 4, 0, 1, 5, 4, 0, 0, 0, 0, 3, 0, 1, 2, 2, 0, 4, 3, 2, 5, 5, 0, 4, 0, 3, 3, 3, 3, 0, 3, 0, 4, 0, 2, 0, 0, 2, 0, 0, 0, 0, 1, 1, 3, 0, 2, 0, 4, 0, 0, 4, 3, 3, 0, 0, 4, 0, 0, 5, 5, 5, 2, 1, 0, 2, 2, 2, 0, 4, 0, 4, 2, 2, 0, 0, 0, 0, 0, 0, 4, 0, 3, 0, 0, 3, 5, 4, 0, 4, 2, 1, 0, 0, 3, 0, 5, 0, 0, 0, 0, 4, 0, 4, 0, 3, 3, 4, 0, 0, 4, 0, 4, 4, 0, 0, 0, 3, 3, 5, 4, 0, 0, 0, 0, 0, 1, 1, 0, 1, 0, 3, 3, 1, 2, 1, 1, 0, 0, 1, 2, 0, 0, 3, 3, 2, 0, 2, 2, 0, 3, 1, 2, 2, 0, 2, 2, 2, 2, 1, 1, 0, 3, 3, 0, 3, 0, 4, 0, 0, 0, 0, 4, 4, 0, 0, 4, 0, 0, 0, 0, 0, 0, 2, 2, 2, 0, 2, 2, 0, 0, 0, 0, 1, 5, 0, 2, 0, 2, 0, 0, 5, 0, 3, 2, 1, 0, 0, 0, 0, 4, 3, 2, 0, 1, 0, 4, 4, 0, 2, 0, 0, 0, 2, 0, 0, 0, 1, 0, 0, 2, 2, 1, 4, 2, 2, 5, 0, 0, 0, 0, 0, 0, 0, 3, 0, 0, 0, 4, 3, 2, 0, 2, 0, 3, 0, 0, 0, 0, 2, 0, 0, 4, 0, 3, 3, 2, 2, 2, 0, 2, 0, 0, 0, 3, 3, 0, 2, 3, 0, 0, 0, 0, 0, 4, 3, 3, 0, 2, 2, 0, 0, 2, 0, 3, 3, 2, 2, 0
 |2, 0, 1, 0, 0, 3, 7, 0, 2, 0, 9, 0, 5, 4, 0, 8, 6, 0, 0, 0, 4, 9, 8, 0, 0, 5, 0, 9, 0, 8, 3, 0, 0, 6, 0, 4, 4, 3, 0, 0, 9, 0, 10, 0, 9, 0, 0, 0, 0, 0, 0, 6, 0, 0, 9, 0, 2, 9, 9, 8, 0, 0, 0, 0, 6, 2, 5, 4, 0, 9, 0, 0, 0, 7, 0, 0, 0, 0, 0, 3, 2, 9, 8, 0, 10, 9, 0, 0, 6, 0, 4, 4, 0, 4, 0, 0, 7, 0, 6, 0, 8, 0, 0, 0, 6, 8, 0, 8, 9, 8, 7, 1, 1, 0, 0, 0, 0, 0, 2, 0, 0, 0, 6, 5, 0, 0, 0, 7, 6, 9, 0, 6, 5, 0, 0, 0, 0, 0, 5, 3, 3, 8, 6, 0, 0, 2, 0, 7, 0, 2, 0, 3, 3, 3, 2, 3, 4, 0, 0, 0, 0, 0, 0, 6, 4, 0, 3, 2, 7, 7, 0, 8, 7, 4, 0, 8, 7, 0, 8, 0, 5, 3, 2, 0, 0, 6, 0, 0, 0, 6, 0, 4, 9, 8, 7, 0, 3, 2, 2, 0, 1, 0, 5, 0, 5, 2, 0, 4, 3, 2, 6, 0, 0, 7, 0, 4, 0, 0, 0, 10, 0, 6, 0, 6, 5, 5, 3, 2, 0, 0, 0, 0, 2, 2, 0, 0, 0, 9, 8, 0, 4, 4, 3, 10, 8, 8, 5, 5, 4, 0, 0, 9, 0, 6, 0, 6, 0, 0, 3, 2, 0, 5, 4, 0, 7, 7, 5, 8, 7, 0, 5, 2, 0, 0, 0, 0, 8, 8, 8, 9, 0, 9, 0, 0, 3, 3, 3, 1, 9, 0, 7, 0, 0, 0, 0, 0, 4, 0, 0, 0
 |0, 7, 0, 9, 7, 0, 0, 7, 0, 7, 0, 6, 0, 0, 4, 0, 0, 3, 8, 8, 0, 0, 0, 2, 8, 0, 3, 0, 4, 0, 0, 3, 3, 0, 3, 0, 0, 0, 4, 8, 0, 6, 0, 3, 0, 6, 4, 2, 9, 9, 8, 0, 4, 3, 0, 4, 0, 0, 0, 0, 7, 4, 3, 8, 0, 0, 0, 0, 1, 0, 4, 3, 1, 0, 1, 10, 7, 6, 4, 0, 0, 0, 0, 3, 0, 0, 8, 8, 0, 4, 0, 0, 4, 0, 5, 4, 0, 5, 0, 7, 0, 6, 6, 6, 0, 0, 10, 0, 0, 0, 0, 0, 0, 8, 5, 4, 3, 5, 0, 4, 4, 4, 0, 0, 4, 3, 7, 0, 0, 0, 1, 0, 0, 8, 8, 3, 2, 1, 0, 0, 0, 0, 0, 1, 7, 0, 3, 0, 4, 0, 7, 0, 0, 0, 0, 0, 0, 3, 2, 8, 6, 4, 5, 0, 0, 9, 0, 0, 0, 0, 2, 0, 0, 0, 8, 0, 0, 6, 0, 2, 0, 0, 0, 4, 3, 0, 2, 1, 1, 0, 3, 0, 0, 0, 0, 2, 0, 0, 0, 6, 0, 5, 0, 3, 0, 0, 3, 0, 0, 0, 0, 2, 2, 0, 2, 0, 3, 2, 1, 0, 6, 0, 1, 0, 0, 0, 0, 0, 8, 5, 4, 8, 0, 0, 5, 5, 4, 0, 0, 1, 0, 0, 0, 0, 0, 0, 0, 0, 0, 7, 6, 0, 5, 0, 4, 0, 3, 2, 0, 0, 5, 0, 0, 1, 0, 0, 0, 0, 0, 6, 0, 0, 4, 10, 9, 7, 0, 0, 0, 0, 8, 0, 6, 5, 0, 0, 0, 0, 0, 7, 0, 8, 7, 4, 7, 3, 0, 4, 2, 2|];